c This is QMaxSAT 2017 based on 14.07
c This is Glucose 3.0
c This is MiniSat 2.2.0
c WARNING: for repeatability, setting FPU to use double precision
c card = mrwto, comp = 0, pmodel = 0, narr = 31, mct = 76, verb = 0
cr firstCPXsol 0 0 0
c top = 189219
c |  Number of variables:    22472                                            |
c |  Number of clauses:      1895312                                          |
c |  Weight of hard clauses: 189219                                           |
c |  Number of soft clauses: 316200                                           |
c |  Number of unit soft clauses: 0                                           |
c |  Maximum Cardinality (by unit): 10266518     (0           )               |
c last restart ## conflicts  :  1 7387 
o 696 | cpuTime 2.79352 s
c Sum of weights = 331178
c A number of soft clauses remained = 10200
c MRWTO encoding for Pseudo-Boolean Constraints
c sizeMax=696
c No.0 Divisor=9	generated by pow1
c No.1 Divisor=9	generated by pow1
c No.2 Divisor=9	generated by pow1
c p0= 9	p1= 9	p2= 9	
c number of digits = 4
c linkingVar[0].size = 9, linkingVar[1].size = 9, linkingVar[2].size = 9, linkingVar[3].size = 1, 
c Pseudo-Boolean Constraints: 176836 variables and 1288162 clauses
c Sum of weights = 331178
c A number of soft clauses remained = 10200
c MRWTO encoding for Pseudo-Boolean Constraints
c sizeMax=696
c No.0 Divisor=9	generated by pow1
c No.1 Divisor=9	generated by pow1
c No.2 Divisor=9	generated by pow1
c p0= 9	p1= 9	p2= 9	
c number of digits = 4
c linkingVar[0].size = 9, linkingVar[1].size = 9, linkingVar[2].size = 9, linkingVar[3].size = 1, 
c Pseudo-Boolean Constraints: 176836 variables and 1288162 clauses
c Sum of weights = 331178
c A number of soft clauses remained = 10200
c MRWTO encoding for Pseudo-Boolean Constraints
c sizeMax=696
c No.0 Divisor=9	generated by pow1
c No.1 Divisor=9	generated by pow1
c No.2 Divisor=9	generated by pow1
c p0= 9	p1= 9	p2= 9	
c number of digits = 4
c linkingVar[0].size = 9, linkingVar[1].size = 9, linkingVar[2].size = 9, linkingVar[3].size = 1, 
c Pseudo-Boolean Constraints: 176836 variables and 1288162 clauses
c Sum of weights = 331178
c A number of soft clauses remained = 10200
c MRWTO encoding for Pseudo-Boolean Constraints
c sizeMax=696
c No.0 Divisor=9	generated by pow1
c No.1 Divisor=9	generated by pow1
c No.2 Divisor=9	generated by pow1
c p0= 9	p1= 9	p2= 9	
c number of digits = 4
c linkingVar[0].size = 9, linkingVar[1].size = 9, linkingVar[2].size = 9, linkingVar[3].size = 1, 
c Pseudo-Boolean Constraints: 176836 variables and 1288162 clauses
c Sum of weights = 331178
c A number of soft clauses remained = 10200
c MRWTO encoding for Pseudo-Boolean Constraints
c sizeMax=696
c No.0 Divisor=9	generated by pow1
c No.1 Divisor=9	generated by pow1
c No.2 Divisor=9	generated by pow1
c p0= 9	p1= 9	p2= 9	
c number of digits = 4
c linkingVar[0].size = 9, linkingVar[1].size = 9, linkingVar[2].size = 9, linkingVar[3].size = 1, 
c Pseudo-Boolean Constraints: 176836 variables and 1288162 clauses
c Sum of weights = 331178
c A number of soft clauses remained = 10200
c MRWTO encoding for Pseudo-Boolean Constraints
c sizeMax=696
c No.0 Divisor=9	generated by pow1
c No.1 Divisor=9	generated by pow1
c No.2 Divisor=9	generated by pow1
c p0= 9	p1= 9	p2= 9	
c number of digits = 4
c linkingVar[0].size = 9, linkingVar[1].size = 9, linkingVar[2].size = 9, linkingVar[3].size = 1, 
c Pseudo-Boolean Constraints: 176836 variables and 1288162 clauses
c Sum of weights = 331178
c A number of soft clauses remained = 10200
c MRWTO encoding for Pseudo-Boolean Constraints
c sizeMax=696
c No.0 Divisor=9	generated by pow1
c No.1 Divisor=9	generated by pow1
c No.2 Divisor=9	generated by pow1
c p0= 9	p1= 9	p2= 9	
c number of digits = 4
c linkingVar[0].size = 9, linkingVar[1].size = 9, linkingVar[2].size = 9, linkingVar[3].size = 1, 
c Pseudo-Boolean Constraints: 176836 variables and 1288162 clauses
c Sum of weights = 331178
c A number of soft clauses remained = 10200
c MRWTO encoding for Pseudo-Boolean Constraints
c sizeMax=696
c No.0 Divisor=9	generated by pow1
c No.1 Divisor=9	generated by pow1
c No.2 Divisor=9	generated by pow1
c p0= 9	p1= 9	p2= 9	
c number of digits = 4
c linkingVar[0].size = 9, linkingVar[1].size = 9, linkingVar[2].size = 9, linkingVar[3].size = 1, 
c Pseudo-Boolean Constraints: 176836 variables and 1288162 clauses
c Sum of weights = 331178
c A number of soft clauses remained = 10200
c MRWTO encoding for Pseudo-Boolean Constraints
c sizeMax=696
c No.0 Divisor=9	generated by pow1
c No.1 Divisor=9	generated by pow1
c No.2 Divisor=9	generated by pow1
c p0= 9	p1= 9	p2= 9	
c number of digits = 4
c linkingVar[0].size = 9, linkingVar[1].size = 9, linkingVar[2].size = 9, linkingVar[3].size = 1, 
c Pseudo-Boolean Constraints: 176836 variables and 1288162 clauses
c Sum of weights = 331178
c A number of soft clauses remained = 10200
c MRWTO encoding for Pseudo-Boolean Constraints
c sizeMax=696
c No.0 Divisor=9	generated by pow1
c No.1 Divisor=9	generated by pow1
c No.2 Divisor=9	generated by pow1
c p0= 9	p1= 9	p2= 9	
c number of digits = 4
c linkingVar[0].size = 9, linkingVar[1].size = 9, linkingVar[2].size = 9, linkingVar[3].size = 1, 
c Pseudo-Boolean Constraints: 176836 variables and 1288162 clauses
c Sum of weights = 331178
c A number of soft clauses remained = 10200
c MRWTO encoding for Pseudo-Boolean Constraints
c sizeMax=696
c No.0 Divisor=9	generated by pow1
c No.1 Divisor=9	generated by pow1
c No.2 Divisor=9	generated by pow1
c p0= 9	p1= 9	p2= 9	
c number of digits = 4
c linkingVar[0].size = 9, linkingVar[1].size = 9, linkingVar[2].size = 9, linkingVar[3].size = 1, 
c Pseudo-Boolean Constraints: 176836 variables and 1288162 clauses
c Sum of weights = 331178
c A number of soft clauses remained = 10200
c MRWTO encoding for Pseudo-Boolean Constraints
c sizeMax=696
c No.0 Divisor=9	generated by pow1
c No.1 Divisor=9	generated by pow1
c No.2 Divisor=9	generated by pow1
c p0= 9	p1= 9	p2= 9	
c number of digits = 4
c linkingVar[0].size = 9, linkingVar[1].size = 9, linkingVar[2].size = 9, linkingVar[3].size = 1, 
c Pseudo-Boolean Constraints: 176836 variables and 1288162 clauses
c Sum of weights = 331178
c A number of soft clauses remained = 10200
c MRWTO encoding for Pseudo-Boolean Constraints
c sizeMax=696
c No.0 Divisor=9	generated by pow1
c No.1 Divisor=9	generated by pow1
c No.2 Divisor=9	generated by pow1
c p0= 9	p1= 9	p2= 9	
c number of digits = 4
c linkingVar[0].size = 9, linkingVar[1].size = 9, linkingVar[2].size = 9, linkingVar[3].size = 1, 
c Pseudo-Boolean Constraints: 176836 variables and 1288162 clauses
c Sum of weights = 331178
c A number of soft clauses remained = 10200
c MRWTO encoding for Pseudo-Boolean Constraints
c sizeMax=696
c No.0 Divisor=9	generated by pow1
c No.1 Divisor=9	generated by pow1
c No.2 Divisor=9	generated by pow1
c p0= 9	p1= 9	p2= 9	
c number of digits = 4
c linkingVar[0].size = 9, linkingVar[1].size = 9, linkingVar[2].size = 9, linkingVar[3].size = 1, 
c Pseudo-Boolean Constraints: 176836 variables and 1288162 clauses
c Sum of weights = 331178
c A number of soft clauses remained = 10200
c MRWTO encoding for Pseudo-Boolean Constraints
c sizeMax=696
c No.0 Divisor=9	generated by pow1
c No.1 Divisor=9	generated by pow1
c No.2 Divisor=9	generated by pow1
c p0= 9	p1= 9	p2= 9	
c number of digits = 4
c linkingVar[0].size = 9, linkingVar[1].size = 9, linkingVar[2].size = 9, linkingVar[3].size = 1, 
c Pseudo-Boolean Constraints: 176836 variables and 1288162 clauses
c Sum of weights = 331178
c A number of soft clauses remained = 10200
c MRWTO encoding for Pseudo-Boolean Constraints
c sizeMax=696
c No.0 Divisor=9	generated by pow1
c No.1 Divisor=9	generated by pow1
c No.2 Divisor=9	generated by pow1
c p0= 9	p1= 9	p2= 9	
c number of digits = 4
c linkingVar[0].size = 9, linkingVar[1].size = 9, linkingVar[2].size = 9, linkingVar[3].size = 1, 
c Pseudo-Boolean Constraints: 176836 variables and 1288162 clauses
c Sum of weights = 331178
c A number of soft clauses remained = 10200
c MRWTO encoding for Pseudo-Boolean Constraints
c sizeMax=696
c No.0 Divisor=9	generated by pow1
c No.1 Divisor=9	generated by pow1
c No.2 Divisor=9	generated by pow1
c p0= 9	p1= 9	p2= 9	
c number of digits = 4
c linkingVar[0].size = 9, linkingVar[1].size = 9, linkingVar[2].size = 9, linkingVar[3].size = 1, 
c Pseudo-Boolean Constraints: 176836 variables and 1288162 clauses
c Sum of weights = 331178
c A number of soft clauses remained = 10200
c MRWTO encoding for Pseudo-Boolean Constraints
c sizeMax=696
c No.0 Divisor=9	generated by pow1
c No.1 Divisor=9	generated by pow1
c No.2 Divisor=9	generated by pow1
c p0= 9	p1= 9	p2= 9	
c number of digits = 4
c linkingVar[0].size = 9, linkingVar[1].size = 9, linkingVar[2].size = 9, linkingVar[3].size = 1, 
c Pseudo-Boolean Constraints: 176836 variables and 1288162 clauses
c Sum of weights = 331178
c A number of soft clauses remained = 10200
c MRWTO encoding for Pseudo-Boolean Constraints
c sizeMax=696
c No.0 Divisor=9	generated by pow1
c No.1 Divisor=9	generated by pow1
c No.2 Divisor=9	generated by pow1
c p0= 9	p1= 9	p2= 9	
c number of digits = 4
c linkingVar[0].size = 9, linkingVar[1].size = 9, linkingVar[2].size = 9, linkingVar[3].size = 1, 
c Pseudo-Boolean Constraints: 176836 variables and 1288162 clauses
c Sum of weights = 331178
c A number of soft clauses remained = 10200
c MRWTO encoding for Pseudo-Boolean Constraints
c sizeMax=696
c No.0 Divisor=9	generated by pow1
c No.1 Divisor=9	generated by pow1
c No.2 Divisor=9	generated by pow1
c p0= 9	p1= 9	p2= 9	
c number of digits = 4
c linkingVar[0].size = 9, linkingVar[1].size = 9, linkingVar[2].size = 9, linkingVar[3].size = 1, 
c Pseudo-Boolean Constraints: 176836 variables and 1288162 clauses
c Sum of weights = 331178
c A number of soft clauses remained = 10200
c MRWTO encoding for Pseudo-Boolean Constraints
c sizeMax=696
c No.0 Divisor=9	generated by pow1
c No.1 Divisor=9	generated by pow1
c No.2 Divisor=9	generated by pow1
c p0= 9	p1= 9	p2= 9	
c number of digits = 4
c linkingVar[0].size = 9, linkingVar[1].size = 9, linkingVar[2].size = 9, linkingVar[3].size = 1, 
c Pseudo-Boolean Constraints: 176836 variables and 1288162 clauses
c Sum of weights = 331178
c A number of soft clauses remained = 10200
c MRWTO encoding for Pseudo-Boolean Constraints
c sizeMax=696
c No.0 Divisor=9	generated by pow1
c No.1 Divisor=9	generated by pow1
c No.2 Divisor=9	generated by pow1
c p0= 9	p1= 9	p2= 9	
c number of digits = 4
c linkingVar[0].size = 9, linkingVar[1].size = 9, linkingVar[2].size = 9, linkingVar[3].size = 1, 
c Pseudo-Boolean Constraints: 176836 variables and 1288162 clauses
c Sum of weights = 331178
c A number of soft clauses remained = 10200
c MRWTO encoding for Pseudo-Boolean Constraints
c sizeMax=696
c No.0 Divisor=9	generated by pow1
c No.1 Divisor=9	generated by pow1
c No.2 Divisor=9	generated by pow1
c p0= 9	p1= 9	p2= 9	
c number of digits = 4
c linkingVar[0].size = 9, linkingVar[1].size = 9, linkingVar[2].size = 9, linkingVar[3].size = 1, 
c Pseudo-Boolean Constraints: 176836 variables and 1288162 clauses
c Sum of weights = 331178
c A number of soft clauses remained = 10200
c MRWTO encoding for Pseudo-Boolean Constraints
c sizeMax=696
c No.0 Divisor=9	generated by pow1
c No.1 Divisor=9	generated by pow1
c No.2 Divisor=9	generated by pow1
c p0= 9	p1= 9	p2= 9	
c number of digits = 4
c linkingVar[0].size = 9, linkingVar[1].size = 9, linkingVar[2].size = 9, linkingVar[3].size = 1, 
c Pseudo-Boolean Constraints: 176836 variables and 1288162 clauses
c Sum of weights = 331178
c A number of soft clauses remained = 10200
c MRWTO encoding for Pseudo-Boolean Constraints
c sizeMax=696
c No.0 Divisor=9	generated by pow1
c No.1 Divisor=9	generated by pow1
c No.2 Divisor=9	generated by pow1
c p0= 9	p1= 9	p2= 9	
c number of digits = 4
c linkingVar[0].size = 9, linkingVar[1].size = 9, linkingVar[2].size = 9, linkingVar[3].size = 1, 
c Pseudo-Boolean Constraints: 176836 variables and 1288162 clauses
c Sum of weights = 331178
c A number of soft clauses remained = 10200
c MRWTO encoding for Pseudo-Boolean Constraints
c sizeMax=696
c No.0 Divisor=9	generated by pow1
c No.1 Divisor=9	generated by pow1
c No.2 Divisor=9	generated by pow1
c p0= 9	p1= 9	p2= 9	
c number of digits = 4
c linkingVar[0].size = 9, linkingVar[1].size = 9, linkingVar[2].size = 9, linkingVar[3].size = 1, 
c Pseudo-Boolean Constraints: 176836 variables and 1288162 clauses
c Sum of weights = 331178
c A number of soft clauses remained = 10200
c MRWTO encoding for Pseudo-Boolean Constraints
c sizeMax=696
c No.0 Divisor=9	generated by pow1
c No.1 Divisor=9	generated by pow1
c No.2 Divisor=9	generated by pow1
c p0= 9	p1= 9	p2= 9	
c number of digits = 4
c linkingVar[0].size = 9, linkingVar[1].size = 9, linkingVar[2].size = 9, linkingVar[3].size = 1, 
c Pseudo-Boolean Constraints: 176836 variables and 1288162 clauses
c Sum of weights = 331178
c A number of soft clauses remained = 10200
c MRWTO encoding for Pseudo-Boolean Constraints
c sizeMax=696
c No.0 Divisor=9	generated by pow1
c No.1 Divisor=9	generated by pow1
c No.2 Divisor=9	generated by pow1
c p0= 9	p1= 9	p2= 9	
c number of digits = 4
c linkingVar[0].size = 9, linkingVar[1].size = 9, linkingVar[2].size = 9, linkingVar[3].size = 1, 
c Pseudo-Boolean Constraints: 176836 variables and 1288162 clauses
c Sum of weights = 331178
c A number of soft clauses remained = 10200
c MRWTO encoding for Pseudo-Boolean Constraints
c sizeMax=696
c No.0 Divisor=9	generated by pow1
c No.1 Divisor=9	generated by pow1
c No.2 Divisor=9	generated by pow1
c p0= 9	p1= 9	p2= 9	
c number of digits = 4
c linkingVar[0].size = 9, linkingVar[1].size = 9, linkingVar[2].size = 9, linkingVar[3].size = 1, 
c Pseudo-Boolean Constraints: 176836 variables and 1288162 clauses
c Sum of weights = 331178
c A number of soft clauses remained = 10200
c MRWTO encoding for Pseudo-Boolean Constraints
c sizeMax=696
c No.0 Divisor=9	generated by pow1
c No.1 Divisor=9	generated by pow1
c No.2 Divisor=9	generated by pow1
c p0= 9	p1= 9	p2= 9	
c number of digits = 4
c linkingVar[0].size = 9, linkingVar[1].size = 9, linkingVar[2].size = 9, linkingVar[3].size = 1, 
c Pseudo-Boolean Constraints: 176836 variables and 1288162 clauses
c Sum of weights = 331178
c A number of soft clauses remained = 10200
c MRWTO encoding for Pseudo-Boolean Constraints
c sizeMax=696
c No.0 Divisor=9	generated by pow1
c No.1 Divisor=9	generated by pow1
c No.2 Divisor=9	generated by pow1
c p0= 9	p1= 9	p2= 9	
c number of digits = 4
c linkingVar[0].size = 9, linkingVar[1].size = 9, linkingVar[2].size = 9, linkingVar[3].size = 1, 
c Pseudo-Boolean Constraints: 176836 variables and 1288162 clauses
c last restart ## conflicts  :  248 58210 
o 433 | cpuTime 18.2409 s
c last restart ## conflicts  :  382 68129 
o 250 | cpuTime 55.5933 s
c last restart ## conflicts  :  143 36087 
o 197 | cpuTime 118.752 s
c last restart ## conflicts  :  475 60244 
o 183 | cpuTime 181.105 s
c last restart ## conflicts  :  560 68820 
o 181 | cpuTime 321.134 s
c last restart ## conflicts  :  384 39713 
o 172 | cpuTime 1035.42 s
c last restart ## conflicts  :  536 67839 
o 167 | cpuTime 2099.15 s
c last restart ## conflicts  :  327 20661 
o 156 | cpuTime 2731.64 s
s UNKNOWN
c Search is stopped by a limit (maybe time-limit)
cr positiVarArr: [ | 74(1->44) | 207(1->71) | 281(1->39) | 412(1->64) | 497(1->43) | 601(1->41) | 721(1->55) | 835(1->63) | 894(1->16) | 989(1->5) | 1152(1->62) | 1256(1->60) | 1374(1->72) | 1417(1->9) | 1552(1->38) | 1660(1->40) | 1777(1->51) | 1898(1->66) | 2003(1->65) | 2101(1->57) | 2183(1->33) | 2264(1->8) | 2372(1->10) | 2472(1->4) | 2588(1->14) | 2683(1->3) | 2860(1->74) | 2962(1->70) | 3022(1->24) | 3157(1->53) | 3238(1->28) | 3287(2->1) | 3440(3->18) | 3557(4->29) | 3664(5->30) | 3808(6->68) | 3868(7->22) | 3987(8->35) | 4036(9->1) | 4146(10->1) | 4256(11->1) | 4361(12->1) | 4509(13->27) | 4587(14->1) | 4741(15->47) | 4801(16->1) | 4919(17->13) | 5001(18->1) | 5176(19->58) | 5261(20->37) | 5306(21->1) | 5417(22->1) | 5519(23->1) | 5717(24->69) | 5741(25->1) | 5851(26->1) | 5938(27->1) | 6051(28->1) | 6198(29->20) | 6332(30->48) | 6388(31->1) | 6557(32->61) | 6577(33->1) | 6775(34->67) | 6821(35->7) | 6922(36->2) | 7016(37->1) | 7143(38->11) | 7253(39->15) | 7394(40->50) | 7430(41->1) | 7530(42->1) | 7685(43->23) | 7817(44->49) | 7916(45->42) | 8014(46->34) | 8083(47->1) | 8209(48->17) | 8374(49->76) | 8429(50->25) | 8505(51->1) | 8662(52->46) | 8781(53->59) | 8854(54->26) | 8934(55->1) | 9033(56->1) | 9165(57->19) | 9235(58->1) | 9414(59->56) | 9476(60->12) | 9558(61->1) | 9728(62->52) | 9788(63->6) | 9924(64->36) | 10067(65->73) | 10131(66->31) | 10238(67->32) | 10387(68->75) | 10412(69->1) | 10508(70->1) | 10651(71->21) | 10790(72->54) | 10838(73->1) | 10993(74->45) | 11027(75->1) | 11152(76->1) | ]
cr the 1-th chain: [ 1->44->49->76->1 ] (#non-depot=3) {#cumul.=4}
cr the 2-th chain: [ 1->71->21->1 ] (#non-depot=2) {#cumul.=6}
cr the 3-th chain: [ 1->39->15->47->1 ] (#non-depot=3) {#cumul.=9}
cr the 4-th chain: [ 1->64->36->2->1 ] (#non-depot=3) {#cumul.=12}
cr the 5-th chain: [ 1->43->23->1 ] (#non-depot=2) {#cumul.=14}
cr the 6-th chain: [ 1->41->1 ] (#non-depot=1) {#cumul.=15}
cr the 7-th chain: [ 1->55->1 ] (#non-depot=1) {#cumul.=16}
cr the 8-th chain: [ 1->63->6->68->75->1 ] (#non-depot=4) {#cumul.=20}
cr the 9-th chain: [ 1->16->1 ] (#non-depot=1) {#cumul.=21}
cr the 10-th chain: [ 1->5->30->48->17->13->27->1 ] (#non-depot=6) {#cumul.=27}
cr the 11-th chain: [ 1->62->52->46->34->67->32->61->1 ] (#non-depot=7) {#cumul.=34}
cr the 12-th chain: [ 1->60->12->1 ] (#non-depot=2) {#cumul.=36}
cr the 13-th chain: [ 1->72->54->26->1 ] (#non-depot=3) {#cumul.=39}
cr the 14-th chain: [ 1->9->1 ] (#non-depot=1) {#cumul.=40}
cr the 15-th chain: [ 1->38->11->1 ] (#non-depot=2) {#cumul.=42}
cr the 16-th chain: [ 1->40->50->25->1 ] (#non-depot=3) {#cumul.=45}
cr the 17-th chain: [ 1->51->1 ] (#non-depot=1) {#cumul.=46}
cr the 18-th chain: [ 1->66->31->1 ] (#non-depot=2) {#cumul.=48}
cr the 19-th chain: [ 1->65->73->1 ] (#non-depot=2) {#cumul.=50}
cr the 20-th chain: [ 1->57->19->58->1 ] (#non-depot=3) {#cumul.=53}
cr the 21-th chain: [ 1->33->1 ] (#non-depot=1) {#cumul.=54}
cr the 22-th chain: [ 1->8->35->7->22->1 ] (#non-depot=4) {#cumul.=58}
cr the 23-th chain: [ 1->10->1 ] (#non-depot=1) {#cumul.=59}
cr the 24-th chain: [ 1->4->29->20->37->1 ] (#non-depot=4) {#cumul.=63}
cr the 25-th chain: [ 1->14->1 ] (#non-depot=1) {#cumul.=64}
cr the 26-th chain: [ 1->3->18->1 ] (#non-depot=2) {#cumul.=66}
cr the 27-th chain: [ 1->74->45->42->1 ] (#non-depot=3) {#cumul.=69}
cr the 28-th chain: [ 1->70->1 ] (#non-depot=1) {#cumul.=70}
cr the 29-th chain: [ 1->24->69->1 ] (#non-depot=2) {#cumul.=72}
cr the 30-th chain: [ 1->53->59->56->1 ] (#non-depot=3) {#cumul.=75}
cr the 31-th chain: [ 1->28->1 ] (#non-depot=1) {#cumul.=76}
c Latest Answer = 0 by 9 loops
c restarts              : 15314
c conflicts             : 2581574        (718 /sec)
c decisions             : 168932784      (0.00 % random) (46978 /sec)
c propagations          : 35150750238    (9774881 /sec)
c conflict literals     : 530735377      (26.66 % deleted)
c Memory used           : 5032.00 MB
c CPU time              : 3596.03 s
